clingo version 5.6.2
Reading from ...togen_asp_scripts/ijp_expt_cases-23.dl
Solving...
UNSATISFIABLE

Models       : 0
Calls        : 1
Time         : 342.896s (Solving: 335.83s 1st Model: 0.00s Unsat: 335.83s)
CPU Time     : 19928.773s
Threads      : 64       (Winner: 60)
